(set-info :smt-lib-version 2.6)
(set-logic QF_SLIA)
(set-info :source |
Generated by: Dmitry Blotsky1, Federico Mora, Murphy Berzish, Yunhui Zheng, Ifaz Kabir, Vijay Ganesh, Zhengyang Lu
Generated on: 2018-01-24
Generator: StringFuzz
Application: Evaluate string solvers
Target solver: Z3str3, CVC4, Z3str2, Norn
Publications: Blotsky, D., Mora, F., Berzish, M., Zheng, Y., Kabir, I., & Ganesh, V. (2018). Stringfuzz: A fuzzer for string solvers. In CAV 2018.
Description: new instance generated by StringFuzz, a modular string and regex fuzzer
|)
(set-info :license "https://creativecommons.org/licenses/by/4.0/")
(set-info :category "random")
(set-info :status unknown)

(declare-fun var0 () String)
(assert (str.in_re var0 (re.++ (re.+ (re.union (str.to_re "00") (str.to_re "111"))) (re.++ (re.* (re.* (str.to_re "2"))) (re.++ (re.+ (re.* (str.to_re "33"))) (re.++ (re.* (re.+ (str.to_re "44"))) (re.++ (re.* (re.* (str.to_re "5"))) (re.++ (re.* (re.* (str.to_re "66"))) (re.++ (re.union (re.* (str.to_re "7")) (re.+ (str.to_re "88"))) (re.++ (re.union (re.* (str.to_re "9")) (re.union (str.to_re "a") (str.to_re "b"))) (re.++ (re.union (re.union (str.to_re "c") (str.to_re "dd")) (re.+ (str.to_re "e"))) (re.++ (re.* (re.union (str.to_re "f") (str.to_re "gg"))) (re.++ (re.union (re.+ (str.to_re "h")) (re.union (str.to_re "iii") (str.to_re "j"))) (re.++ (re.+ (re.union (str.to_re "k") (str.to_re "lll"))) (re.++ (re.union (re.+ (str.to_re "mmm")) (re.+ (str.to_re "n"))) (re.++ (re.union (re.+ (str.to_re "oo")) (re.* (str.to_re "ppp"))) (re.++ (re.+ (re.+ (str.to_re "qqq"))) (re.++ (re.* (re.+ (str.to_re "rrr"))) (re.++ (re.+ (re.* (str.to_re "ss"))) (re.++ (re.* (re.union (str.to_re "tt") (str.to_re "uu"))) (re.++ (re.+ (re.* (str.to_re "vvv"))) (re.++ (re.* (re.+ (str.to_re "ww"))) (re.++ (re.union (re.union (str.to_re "x") (str.to_re "yy")) (re.+ (str.to_re "z"))) (re.+ (re.union (str.to_re "AAA") (str.to_re "BB"))))))))))))))))))))))))))
(check-sat)
(exit)
